Maximize
  - 4.3444473957358 edge_0_2_0_0 - 1.8776890987088 edge_0_3_0_0
   - 3.9169019144076 edge_0_4_0_0 - 4.5588008073752 edge_0_5_0_0
   - 2.3906036306536 edge_0_6_0_0 - 3.5543429754203 edge_0_7_0_0
   - 3.893839410916 edge_0_11_0_0 - 4.4558194653016 edge_0_13_0_0
   - 3.2835694089574 edge_0_15_0_0 - 3.758934516342 edge_0_16_0_0
   - 2.47117 edge_0_19_0_0 + 0.6673787377023187 edge_2_3_0_0
   + 0.1112779195604493 edge_2_4_0_0 + 0.1277945125477714 edge_2_5_0_0
   - 0.3244146566056372 edge_2_6_0_0 - 0.4667229571740837 edge_2_7_0_0
   - 0.1173952223225661 edge_2_8_0_0 - 0.038113053120329 edge_2_9_0_0
   - 0.7150019486812591 edge_2_11_0_0 - 1.416312210167285 edge_2_16_0_0
   - 1.54417217284859 edge_2_19_0_0 + 0.02462211745515 edge_2_20_0_0
   + 2.991765842526007 edge_3_2_0_0 + 2.37550892209857 edge_3_4_0_0
   - 0.1564995772171127 edge_3_5_0_0 + 1.294550081135663 edge_3_6_0_0
   + 0.1100140536174089 edge_3_7_0_0 + 1.931380241220039 edge_3_8_0_0
   + 1.814684486275028 edge_3_9_0_0 + 1.233348322584921 edge_3_11_0_0
   + 1.187989583323726 edge_3_12_0_0 - 0.9520146001537342 edge_3_13_0_0
   - 1.85679944296 edge_3_15_0_0 - 0.128632369543533 edge_3_16_0_0
   - 2.763948507467199 edge_3_19_0_0 + 4.455684920514811 edge_3_20_0_0
   - 0.5907887246285294 edge_4_3_0_0 - 1.013725097181695 edge_4_5_0_0
   - 0.0639733908640316 edge_4_6_0_0 + 0.1448484933531026 edge_5_2_0_0
   + 0.1427908041570659 edge_5_3_0_0 + 0.2037187937910029 edge_5_4_0_0
   + 0.5744157734790865 edge_5_6_0_0 - 0.3415171052056806 edge_5_7_0_0
   - 0.4085088818231821 edge_5_9_0_0 - 0.1395986751548317 edge_5_16_0_0
   - 0.227972227355496 edge_6_2_0_0 + 0.102353696720442 edge_6_3_0_0
   + 0.3481432123240376 edge_6_4_0_0 + 1.231584887929305 edge_6_5_0_0
   + 2.91071459515439 edge_6_7_0_0 + 2.55774467025301 edge_6_8_0_0
   + 3.03870692351002 edge_6_9_0_0 + 2.361860930310101 edge_6_11_0_0
   + 1.909116252417341 edge_6_12_0_0 - 0.1037102035607693 edge_6_13_0_0
   - 0.8075373164126369 edge_6_15_0_0 + 1.373536948724735 edge_6_16_0_0
   - 0.7611536449767382 edge_6_17_0_0 - 0.8838789906150001 edge_6_19_0_0
   + 3.509863318615881 edge_6_20_0_0 + 0.6816341286591679 edge_7_2_0_0
   - 0.2544315907158679 edge_7_3_0_0 + 0.4783473947805195 edge_7_4_0_0
   + 1.630024128638266 edge_7_5_0_0 + 1.789457356334558 edge_7_6_0_0
   + 0.785073245167951 edge_7_8_0_0 + 1.039773225709227 edge_7_9_0_0
   + 0.1195801136648652 edge_7_11_0_0 + 0.0474593485203134 edge_7_12_0_0
   - 0.0279171273014193 edge_7_13_0_0 + 0.097003616625173 edge_7_15_0_0
   - 0.049918582762345 edge_7_16_0_0 - 1.314302296113773 edge_7_19_0_0
   + 0.9165138743610199 edge_7_20_0_0 - 0.3672893596054054 edge_8_7_0_0
   + 0.0621652173595854 edge_8_9_0_0 + 0.1975800236866897 edge_8_11_0_0
   - 0.0949437173779086 edge_8_16_0_0 - 0.8212109271269524 edge_9_7_0_0
   + 0.2467013169294442 edge_9_8_0_0 + 0.5567117188624949 edge_9_11_0_0
   + 0.7022923189601551 edge_9_12_0_0 + 0.0403022917273054 edge_9_13_0_0
   - 2.708120832997866 edge_11_2_0_0 - 1.714354768338716 edge_11_3_0_0
   - 1.145924923498181 edge_11_4_0_0 - 0.5442545363244994 edge_11_6_0_0
   + 0.7455883393888395 edge_11_7_0_0 + 0.4552356288097101 edge_11_8_0_0
   + 1.005767402006259 edge_11_9_0_0 + 2.174293459707064 edge_11_12_0_0
   + 1.410327885714633 edge_11_13_0_0 + 0.30027332767432 edge_11_15_0_0
   + 1.5169814440685 edge_11_16_0_0 - 0.7387568235611489 edge_11_17_0_0
   - 0.3228828983708058 edge_11_19_0_0 + 2.2919443367912 edge_11_20_0_0
   + 0.0775267936808336 edge_13_2_0_0 - 0.5935497507090214 edge_13_3_0_0
   - 0.9284123037303901 edge_13_4_0_0 + 0.3616883101737575 edge_13_5_0_0
   + 0.0444960497499594 edge_13_6_0_0 - 0.5062482414965538 edge_13_7_0_0
   + 0.3074165116539341 edge_13_8_0_0 + 0.2327811774467454 edge_13_9_0_0
   + 1.485316709871573 edge_13_11_0_0 + 2.058720691020747 edge_13_14_0_0
   + 1.6090598069128 edge_13_15_0_0 + 1.104376504355804 edge_13_16_0_0
   + 0.1560681607452354 edge_13_17_0_0 + 0.3030801758850306 edge_13_18_0_0
   + 0.8207242495668 edge_13_19_0_0 + 1.1203298655604 edge_13_20_0_0
   - 0.843099880851 edge_15_2_0_0 - 0.9686437094068 edge_15_3_0_0
   - 0.8750441276962 edge_15_4_0_0 - 0.1634634950012 edge_15_5_0_0
   + 0.51504648363168 edge_15_6_0_0 - 0.9321726671924501 edge_15_7_0_0
   - 0.013574003445584 edge_15_8_0_0 + 0.6590187455087599 edge_15_11_0_0
   + 0.0711599827603328 edge_15_12_0_0 + 3.549517894697064 edge_15_13_0_0
   + 4.163455299394911 edge_15_14_0_0 + 1.294844332194 edge_15_16_0_0
   + 0.5253514007091608 edge_15_17_0_0 + 1.222299779986 edge_15_19_0_0
   + 1.12254 edge_15_20_0_0 - 2.273436708872965 edge_16_2_0_0
   - 0.846811499410274 edge_16_3_0_0 - 1.835237449254675 edge_16_4_0_0
   - 1.176195049899687 edge_16_5_0_0 - 0.1079935865249174 edge_16_6_0_0
   - 0.6805637414923462 edge_16_7_0_0 - 0.5740887269541942 edge_16_8_0_0
   - 0.4611706745915282 edge_16_9_0_0 + 0.1543837296569875 edge_16_11_0_0
   + 0.3866744922033283 edge_16_12_0_0 + 1.777831540594042 edge_16_13_0_0
   + 0.8187209843471068 edge_16_14_0_0 + 2.425527861182706 edge_16_15_0_0
   + 0.5449130628469221 edge_16_17_0_0 + 2.301751596041484 edge_16_19_0_0
   + 2.791397470295554 edge_16_20_0_0 - 0.1453518401162694 edge_17_13_0_0
   - 0.4231204148289616 edge_17_15_0_0 + 0.2247891756889664 edge_17_18_0_0
   + 0.6122675398599901 edge_17_19_0_0 - 1.719006241273403 edge_19_2_0_0
   - 1.1293020789792 edge_19_6_0_0 - 0.3436255706314832 edge_19_11_0_0
   + 0.042284341976256 edge_19_13_0_0 + 0.96654036708177 edge_19_14_0_0
   + 0.24445395599828 edge_19_15_0_0 - 0.1684599211794092 edge_19_16_0_0
   + 3.629497246048452 edge_19_17_0_0 + 3.5474717109286 edge_19_18_0_0
   + 1.145899243706 edge_19_20_0_0
Subject To
 one_parent_1: = 1
 consume_one_flow_unit_1: = 1
 one_parent_2: edge_0_2_0_0 + edge_3_2_0_0 + edge_5_2_0_0 + edge_6_2_0_0
   + edge_7_2_0_0 + edge_11_2_0_0 + edge_13_2_0_0 + edge_15_2_0_0
   + edge_16_2_0_0 + edge_19_2_0_0 = 1
 consume_one_flow_unit_2: flow_0_2_0_0 - flow_2_3_0_0 - flow_2_4_0_0
   - flow_2_5_0_0 - flow_2_6_0_0 - flow_2_7_0_0 - flow_2_8_0_0
   - flow_2_9_0_0 - flow_2_11_0_0 - flow_2_16_0_0 - flow_2_19_0_0
   - flow_2_20_0_0 + flow_3_2_0_0 + flow_5_2_0_0 + flow_6_2_0_0
   + flow_7_2_0_0 + flow_11_2_0_0 + flow_13_2_0_0 + flow_15_2_0_0
   + flow_16_2_0_0 + flow_19_2_0_0 = 1
 one_parent_3: edge_0_3_0_0 + edge_2_3_0_0 + edge_4_3_0_0 + edge_5_3_0_0
   + edge_6_3_0_0 + edge_7_3_0_0 + edge_11_3_0_0 + edge_13_3_0_0
   + edge_15_3_0_0 + edge_16_3_0_0 = 1
 consume_one_flow_unit_3: flow_0_3_0_0 + flow_2_3_0_0 - flow_3_2_0_0
   - flow_3_4_0_0 - flow_3_5_0_0 - flow_3_6_0_0 - flow_3_7_0_0
   - flow_3_8_0_0 - flow_3_9_0_0 - flow_3_11_0_0 - flow_3_12_0_0
   - flow_3_13_0_0 - flow_3_15_0_0 - flow_3_16_0_0 - flow_3_19_0_0
   - flow_3_20_0_0 + flow_4_3_0_0 + flow_5_3_0_0 + flow_6_3_0_0
   + flow_7_3_0_0 + flow_11_3_0_0 + flow_13_3_0_0 + flow_15_3_0_0
   + flow_16_3_0_0 = 1
 one_parent_4: edge_0_4_0_0 + edge_2_4_0_0 + edge_3_4_0_0 + edge_5_4_0_0
   + edge_6_4_0_0 + edge_7_4_0_0 + edge_11_4_0_0 + edge_13_4_0_0
   + edge_15_4_0_0 + edge_16_4_0_0 = 1
 consume_one_flow_unit_4: flow_0_4_0_0 + flow_2_4_0_0 + flow_3_4_0_0
   - flow_4_3_0_0 - flow_4_5_0_0 - flow_4_6_0_0 + flow_5_4_0_0
   + flow_6_4_0_0 + flow_7_4_0_0 + flow_11_4_0_0 + flow_13_4_0_0
   + flow_15_4_0_0 + flow_16_4_0_0 = 1
 one_parent_5: edge_0_5_0_0 + edge_2_5_0_0 + edge_3_5_0_0 + edge_4_5_0_0
   + edge_6_5_0_0 + edge_7_5_0_0 + edge_13_5_0_0 + edge_15_5_0_0
   + edge_16_5_0_0 = 1
 consume_one_flow_unit_5: flow_0_5_0_0 + flow_2_5_0_0 + flow_3_5_0_0
   + flow_4_5_0_0 - flow_5_2_0_0 - flow_5_3_0_0 - flow_5_4_0_0
   - flow_5_6_0_0 - flow_5_7_0_0 - flow_5_9_0_0 - flow_5_16_0_0
   + flow_6_5_0_0 + flow_7_5_0_0 + flow_13_5_0_0 + flow_15_5_0_0
   + flow_16_5_0_0 = 1
 one_parent_6: edge_0_6_0_0 + edge_2_6_0_0 + edge_3_6_0_0 + edge_4_6_0_0
   + edge_5_6_0_0 + edge_7_6_0_0 + edge_11_6_0_0 + edge_13_6_0_0
   + edge_15_6_0_0 + edge_16_6_0_0 + edge_19_6_0_0 = 1
 consume_one_flow_unit_6: flow_0_6_0_0 + flow_2_6_0_0 + flow_3_6_0_0
   + flow_4_6_0_0 + flow_5_6_0_0 - flow_6_2_0_0 - flow_6_3_0_0
   - flow_6_4_0_0 - flow_6_5_0_0 - flow_6_7_0_0 - flow_6_8_0_0
   - flow_6_9_0_0 - flow_6_11_0_0 - flow_6_12_0_0 - flow_6_13_0_0
   - flow_6_15_0_0 - flow_6_16_0_0 - flow_6_17_0_0 - flow_6_19_0_0
   - flow_6_20_0_0 + flow_7_6_0_0 + flow_11_6_0_0 + flow_13_6_0_0
   + flow_15_6_0_0 + flow_16_6_0_0 + flow_19_6_0_0 = 1
 one_parent_7: edge_0_7_0_0 + edge_2_7_0_0 + edge_3_7_0_0 + edge_5_7_0_0
   + edge_6_7_0_0 + edge_8_7_0_0 + edge_9_7_0_0 + edge_11_7_0_0
   + edge_13_7_0_0 + edge_15_7_0_0 + edge_16_7_0_0 = 1
 consume_one_flow_unit_7: flow_0_7_0_0 + flow_2_7_0_0 + flow_3_7_0_0
   + flow_5_7_0_0 + flow_6_7_0_0 - flow_7_2_0_0 - flow_7_3_0_0
   - flow_7_4_0_0 - flow_7_5_0_0 - flow_7_6_0_0 - flow_7_8_0_0
   - flow_7_9_0_0 - flow_7_11_0_0 - flow_7_12_0_0 - flow_7_13_0_0
   - flow_7_15_0_0 - flow_7_16_0_0 - flow_7_19_0_0 - flow_7_20_0_0
   + flow_8_7_0_0 + flow_9_7_0_0 + flow_11_7_0_0 + flow_13_7_0_0
   + flow_15_7_0_0 + flow_16_7_0_0 = 1
 one_parent_8: edge_2_8_0_0 + edge_3_8_0_0 + edge_6_8_0_0 + edge_7_8_0_0
   + edge_9_8_0_0 + edge_11_8_0_0 + edge_13_8_0_0 + edge_15_8_0_0
   + edge_16_8_0_0 = 1
 consume_one_flow_unit_8: flow_2_8_0_0 + flow_3_8_0_0 + flow_6_8_0_0
   + flow_7_8_0_0 - flow_8_7_0_0 - flow_8_9_0_0 - flow_8_11_0_0
   - flow_8_16_0_0 + flow_9_8_0_0 + flow_11_8_0_0 + flow_13_8_0_0
   + flow_15_8_0_0 + flow_16_8_0_0 = 1
 one_parent_9: edge_2_9_0_0 + edge_3_9_0_0 + edge_5_9_0_0 + edge_6_9_0_0
   + edge_7_9_0_0 + edge_8_9_0_0 + edge_11_9_0_0 + edge_13_9_0_0
   + edge_16_9_0_0 = 1
 consume_one_flow_unit_9: flow_2_9_0_0 + flow_3_9_0_0 + flow_5_9_0_0
   + flow_6_9_0_0 + flow_7_9_0_0 + flow_8_9_0_0 - flow_9_7_0_0
   - flow_9_8_0_0 - flow_9_11_0_0 - flow_9_12_0_0 - flow_9_13_0_0
   + flow_11_9_0_0 + flow_13_9_0_0 + flow_16_9_0_0 = 1
 one_parent_10: = 1
 consume_one_flow_unit_10: = 1
 one_parent_11: edge_0_11_0_0 + edge_2_11_0_0 + edge_3_11_0_0
   + edge_6_11_0_0 + edge_7_11_0_0 + edge_8_11_0_0 + edge_9_11_0_0
   + edge_13_11_0_0 + edge_15_11_0_0 + edge_16_11_0_0 + edge_19_11_0_0 = 1
 consume_one_flow_unit_11: flow_0_11_0_0 + flow_2_11_0_0 + flow_3_11_0_0
   + flow_6_11_0_0 + flow_7_11_0_0 + flow_8_11_0_0 + flow_9_11_0_0
   - flow_11_2_0_0 - flow_11_3_0_0 - flow_11_4_0_0 - flow_11_6_0_0
   - flow_11_7_0_0 - flow_11_8_0_0 - flow_11_9_0_0 - flow_11_12_0_0
   - flow_11_13_0_0 - flow_11_15_0_0 - flow_11_16_0_0 - flow_11_17_0_0
   - flow_11_19_0_0 - flow_11_20_0_0 + flow_13_11_0_0 + flow_15_11_0_0
   + flow_16_11_0_0 + flow_19_11_0_0 = 1
 one_parent_12: edge_3_12_0_0 + edge_6_12_0_0 + edge_7_12_0_0
   + edge_9_12_0_0 + edge_11_12_0_0 + edge_15_12_0_0 + edge_16_12_0_0 = 1
 consume_one_flow_unit_12: flow_3_12_0_0 + flow_6_12_0_0 + flow_7_12_0_0
   + flow_9_12_0_0 + flow_11_12_0_0 + flow_15_12_0_0 + flow_16_12_0_0 = 1
 one_parent_13: edge_0_13_0_0 + edge_3_13_0_0 + edge_6_13_0_0
   + edge_7_13_0_0 + edge_9_13_0_0 + edge_11_13_0_0 + edge_15_13_0_0
   + edge_16_13_0_0 + edge_17_13_0_0 + edge_19_13_0_0 = 1
 consume_one_flow_unit_13: flow_0_13_0_0 + flow_3_13_0_0 + flow_6_13_0_0
   + flow_7_13_0_0 + flow_9_13_0_0 + flow_11_13_0_0 - flow_13_2_0_0
   - flow_13_3_0_0 - flow_13_4_0_0 - flow_13_5_0_0 - flow_13_6_0_0
   - flow_13_7_0_0 - flow_13_8_0_0 - flow_13_9_0_0 - flow_13_11_0_0
   - flow_13_14_0_0 - flow_13_15_0_0 - flow_13_16_0_0 - flow_13_17_0_0
   - flow_13_18_0_0 - flow_13_19_0_0 - flow_13_20_0_0 + flow_15_13_0_0
   + flow_16_13_0_0 + flow_17_13_0_0 + flow_19_13_0_0 = 1
 one_parent_14: edge_13_14_0_0 + edge_15_14_0_0 + edge_16_14_0_0
   + edge_19_14_0_0 = 1
 consume_one_flow_unit_14: flow_13_14_0_0 + flow_15_14_0_0 + flow_16_14_0_0
   + flow_19_14_0_0 = 1
 one_parent_15: edge_0_15_0_0 + edge_3_15_0_0 + edge_6_15_0_0
   + edge_7_15_0_0 + edge_11_15_0_0 + edge_13_15_0_0 + edge_16_15_0_0
   + edge_17_15_0_0 + edge_19_15_0_0 = 1
 consume_one_flow_unit_15: flow_0_15_0_0 + flow_3_15_0_0 + flow_6_15_0_0
   + flow_7_15_0_0 + flow_11_15_0_0 + flow_13_15_0_0 - flow_15_2_0_0
   - flow_15_3_0_0 - flow_15_4_0_0 - flow_15_5_0_0 - flow_15_6_0_0
   - flow_15_7_0_0 - flow_15_8_0_0 - flow_15_11_0_0 - flow_15_12_0_0
   - flow_15_13_0_0 - flow_15_14_0_0 - flow_15_16_0_0 - flow_15_17_0_0
   - flow_15_19_0_0 - flow_15_20_0_0 + flow_16_15_0_0 + flow_17_15_0_0
   + flow_19_15_0_0 = 1
 one_parent_16: edge_0_16_0_0 + edge_2_16_0_0 + edge_3_16_0_0
   + edge_5_16_0_0 + edge_6_16_0_0 + edge_7_16_0_0 + edge_8_16_0_0
   + edge_11_16_0_0 + edge_13_16_0_0 + edge_15_16_0_0 + edge_19_16_0_0 = 1
 consume_one_flow_unit_16: flow_0_16_0_0 + flow_2_16_0_0 + flow_3_16_0_0
   + flow_5_16_0_0 + flow_6_16_0_0 + flow_7_16_0_0 + flow_8_16_0_0
   + flow_11_16_0_0 + flow_13_16_0_0 + flow_15_16_0_0 - flow_16_2_0_0
   - flow_16_3_0_0 - flow_16_4_0_0 - flow_16_5_0_0 - flow_16_6_0_0
   - flow_16_7_0_0 - flow_16_8_0_0 - flow_16_9_0_0 - flow_16_11_0_0
   - flow_16_12_0_0 - flow_16_13_0_0 - flow_16_14_0_0 - flow_16_15_0_0
   - flow_16_17_0_0 - flow_16_19_0_0 - flow_16_20_0_0 + flow_19_16_0_0 = 1
 one_parent_17: edge_6_17_0_0 + edge_11_17_0_0 + edge_13_17_0_0
   + edge_15_17_0_0 + edge_16_17_0_0 + edge_19_17_0_0 = 1
 consume_one_flow_unit_17: flow_6_17_0_0 + flow_11_17_0_0 + flow_13_17_0_0
   + flow_15_17_0_0 + flow_16_17_0_0 - flow_17_13_0_0 - flow_17_15_0_0
   - flow_17_18_0_0 - flow_17_19_0_0 + flow_19_17_0_0 = 1
 one_parent_18: edge_13_18_0_0 + edge_17_18_0_0 + edge_19_18_0_0 = 1
 consume_one_flow_unit_18: flow_13_18_0_0 + flow_17_18_0_0 + flow_19_18_0_0
   = 1
 one_parent_19: edge_0_19_0_0 + edge_2_19_0_0 + edge_3_19_0_0
   + edge_6_19_0_0 + edge_7_19_0_0 + edge_11_19_0_0 + edge_13_19_0_0
   + edge_15_19_0_0 + edge_16_19_0_0 + edge_17_19_0_0 = 1
 consume_one_flow_unit_19: flow_0_19_0_0 + flow_2_19_0_0 + flow_3_19_0_0
   + flow_6_19_0_0 + flow_7_19_0_0 + flow_11_19_0_0 + flow_13_19_0_0
   + flow_15_19_0_0 + flow_16_19_0_0 + flow_17_19_0_0 - flow_19_2_0_0
   - flow_19_6_0_0 - flow_19_11_0_0 - flow_19_13_0_0 - flow_19_14_0_0
   - flow_19_15_0_0 - flow_19_16_0_0 - flow_19_17_0_0 - flow_19_18_0_0
   - flow_19_20_0_0 = 1
 one_parent_20: edge_2_20_0_0 + edge_3_20_0_0 + edge_6_20_0_0
   + edge_7_20_0_0 + edge_11_20_0_0 + edge_13_20_0_0 + edge_15_20_0_0
   + edge_16_20_0_0 + edge_19_20_0_0 = 1
 consume_one_flow_unit_20: flow_2_20_0_0 + flow_3_20_0_0 + flow_6_20_0_0
   + flow_7_20_0_0 + flow_11_20_0_0 + flow_13_20_0_0 + flow_15_20_0_0
   + flow_16_20_0_0 + flow_19_20_0_0 = 1
 root_flow: flow_0_2_0_0 + flow_0_3_0_0 + flow_0_4_0_0 + flow_0_5_0_0
   + flow_0_6_0_0 + flow_0_7_0_0 + flow_0_11_0_0 + flow_0_13_0_0
   + flow_0_15_0_0 + flow_0_16_0_0 + flow_0_19_0_0 = 20
 inactive_no_flow_0_2_0_0: flow_0_2_0_0 - 1000 edge_0_2_0_0 <= 0
 inactive_no_flow_0_3_0_0: flow_0_3_0_0 - 1000 edge_0_3_0_0 <= 0
 inactive_no_flow_0_4_0_0: flow_0_4_0_0 - 1000 edge_0_4_0_0 <= 0
 inactive_no_flow_0_5_0_0: flow_0_5_0_0 - 1000 edge_0_5_0_0 <= 0
 inactive_no_flow_0_6_0_0: flow_0_6_0_0 - 1000 edge_0_6_0_0 <= 0
 inactive_no_flow_0_7_0_0: flow_0_7_0_0 - 1000 edge_0_7_0_0 <= 0
 inactive_no_flow_0_11_0_0: flow_0_11_0_0 - 1000 edge_0_11_0_0 <= 0
 inactive_no_flow_0_13_0_0: flow_0_13_0_0 - 1000 edge_0_13_0_0 <= 0
 inactive_no_flow_0_15_0_0: flow_0_15_0_0 - 1000 edge_0_15_0_0 <= 0
 inactive_no_flow_0_16_0_0: flow_0_16_0_0 - 1000 edge_0_16_0_0 <= 0
 inactive_no_flow_0_19_0_0: flow_0_19_0_0 - 1000 edge_0_19_0_0 <= 0
 inactive_no_flow_2_3_0_0: flow_2_3_0_0 - 1000 edge_2_3_0_0 <= 0
 inactive_no_flow_2_4_0_0: flow_2_4_0_0 - 1000 edge_2_4_0_0 <= 0
 inactive_no_flow_2_5_0_0: flow_2_5_0_0 - 1000 edge_2_5_0_0 <= 0
 inactive_no_flow_2_6_0_0: flow_2_6_0_0 - 1000 edge_2_6_0_0 <= 0
 inactive_no_flow_2_7_0_0: flow_2_7_0_0 - 1000 edge_2_7_0_0 <= 0
 inactive_no_flow_2_8_0_0: flow_2_8_0_0 - 1000 edge_2_8_0_0 <= 0
 inactive_no_flow_2_9_0_0: flow_2_9_0_0 - 1000 edge_2_9_0_0 <= 0
 inactive_no_flow_2_11_0_0: flow_2_11_0_0 - 1000 edge_2_11_0_0 <= 0
 inactive_no_flow_2_16_0_0: flow_2_16_0_0 - 1000 edge_2_16_0_0 <= 0
 inactive_no_flow_2_19_0_0: flow_2_19_0_0 - 1000 edge_2_19_0_0 <= 0
 inactive_no_flow_2_20_0_0: flow_2_20_0_0 - 1000 edge_2_20_0_0 <= 0
 inactive_no_flow_3_2_0_0: flow_3_2_0_0 - 1000 edge_3_2_0_0 <= 0
 inactive_no_flow_3_4_0_0: flow_3_4_0_0 - 1000 edge_3_4_0_0 <= 0
 inactive_no_flow_3_5_0_0: flow_3_5_0_0 - 1000 edge_3_5_0_0 <= 0
 inactive_no_flow_3_6_0_0: flow_3_6_0_0 - 1000 edge_3_6_0_0 <= 0
 inactive_no_flow_3_7_0_0: flow_3_7_0_0 - 1000 edge_3_7_0_0 <= 0
 inactive_no_flow_3_8_0_0: flow_3_8_0_0 - 1000 edge_3_8_0_0 <= 0
 inactive_no_flow_3_9_0_0: flow_3_9_0_0 - 1000 edge_3_9_0_0 <= 0
 inactive_no_flow_3_11_0_0: flow_3_11_0_0 - 1000 edge_3_11_0_0 <= 0
 inactive_no_flow_3_12_0_0: flow_3_12_0_0 - 1000 edge_3_12_0_0 <= 0
 inactive_no_flow_3_13_0_0: flow_3_13_0_0 - 1000 edge_3_13_0_0 <= 0
 inactive_no_flow_3_15_0_0: flow_3_15_0_0 - 1000 edge_3_15_0_0 <= 0
 inactive_no_flow_3_16_0_0: flow_3_16_0_0 - 1000 edge_3_16_0_0 <= 0
 inactive_no_flow_3_19_0_0: flow_3_19_0_0 - 1000 edge_3_19_0_0 <= 0
 inactive_no_flow_3_20_0_0: flow_3_20_0_0 - 1000 edge_3_20_0_0 <= 0
 inactive_no_flow_4_3_0_0: flow_4_3_0_0 - 1000 edge_4_3_0_0 <= 0
 inactive_no_flow_4_5_0_0: flow_4_5_0_0 - 1000 edge_4_5_0_0 <= 0
 inactive_no_flow_4_6_0_0: flow_4_6_0_0 - 1000 edge_4_6_0_0 <= 0
 inactive_no_flow_5_2_0_0: flow_5_2_0_0 - 1000 edge_5_2_0_0 <= 0
 inactive_no_flow_5_3_0_0: flow_5_3_0_0 - 1000 edge_5_3_0_0 <= 0
 inactive_no_flow_5_4_0_0: flow_5_4_0_0 - 1000 edge_5_4_0_0 <= 0
 inactive_no_flow_5_6_0_0: flow_5_6_0_0 - 1000 edge_5_6_0_0 <= 0
 inactive_no_flow_5_7_0_0: flow_5_7_0_0 - 1000 edge_5_7_0_0 <= 0
 inactive_no_flow_5_9_0_0: flow_5_9_0_0 - 1000 edge_5_9_0_0 <= 0
 inactive_no_flow_5_16_0_0: flow_5_16_0_0 - 1000 edge_5_16_0_0 <= 0
 inactive_no_flow_6_2_0_0: flow_6_2_0_0 - 1000 edge_6_2_0_0 <= 0
 inactive_no_flow_6_3_0_0: flow_6_3_0_0 - 1000 edge_6_3_0_0 <= 0
 inactive_no_flow_6_4_0_0: flow_6_4_0_0 - 1000 edge_6_4_0_0 <= 0
 inactive_no_flow_6_5_0_0: flow_6_5_0_0 - 1000 edge_6_5_0_0 <= 0
 inactive_no_flow_6_7_0_0: flow_6_7_0_0 - 1000 edge_6_7_0_0 <= 0
 inactive_no_flow_6_8_0_0: flow_6_8_0_0 - 1000 edge_6_8_0_0 <= 0
 inactive_no_flow_6_9_0_0: flow_6_9_0_0 - 1000 edge_6_9_0_0 <= 0
 inactive_no_flow_6_11_0_0: flow_6_11_0_0 - 1000 edge_6_11_0_0 <= 0
 inactive_no_flow_6_12_0_0: flow_6_12_0_0 - 1000 edge_6_12_0_0 <= 0
 inactive_no_flow_6_13_0_0: flow_6_13_0_0 - 1000 edge_6_13_0_0 <= 0
 inactive_no_flow_6_15_0_0: flow_6_15_0_0 - 1000 edge_6_15_0_0 <= 0
 inactive_no_flow_6_16_0_0: flow_6_16_0_0 - 1000 edge_6_16_0_0 <= 0
 inactive_no_flow_6_17_0_0: flow_6_17_0_0 - 1000 edge_6_17_0_0 <= 0
 inactive_no_flow_6_19_0_0: flow_6_19_0_0 - 1000 edge_6_19_0_0 <= 0
 inactive_no_flow_6_20_0_0: flow_6_20_0_0 - 1000 edge_6_20_0_0 <= 0
 inactive_no_flow_7_2_0_0: flow_7_2_0_0 - 1000 edge_7_2_0_0 <= 0
 inactive_no_flow_7_3_0_0: flow_7_3_0_0 - 1000 edge_7_3_0_0 <= 0
 inactive_no_flow_7_4_0_0: flow_7_4_0_0 - 1000 edge_7_4_0_0 <= 0
 inactive_no_flow_7_5_0_0: flow_7_5_0_0 - 1000 edge_7_5_0_0 <= 0
 inactive_no_flow_7_6_0_0: flow_7_6_0_0 - 1000 edge_7_6_0_0 <= 0
 inactive_no_flow_7_8_0_0: flow_7_8_0_0 - 1000 edge_7_8_0_0 <= 0
 inactive_no_flow_7_9_0_0: flow_7_9_0_0 - 1000 edge_7_9_0_0 <= 0
 inactive_no_flow_7_11_0_0: flow_7_11_0_0 - 1000 edge_7_11_0_0 <= 0
 inactive_no_flow_7_12_0_0: flow_7_12_0_0 - 1000 edge_7_12_0_0 <= 0
 inactive_no_flow_7_13_0_0: flow_7_13_0_0 - 1000 edge_7_13_0_0 <= 0
 inactive_no_flow_7_15_0_0: flow_7_15_0_0 - 1000 edge_7_15_0_0 <= 0
 inactive_no_flow_7_16_0_0: flow_7_16_0_0 - 1000 edge_7_16_0_0 <= 0
 inactive_no_flow_7_19_0_0: flow_7_19_0_0 - 1000 edge_7_19_0_0 <= 0
 inactive_no_flow_7_20_0_0: flow_7_20_0_0 - 1000 edge_7_20_0_0 <= 0
 inactive_no_flow_8_7_0_0: flow_8_7_0_0 - 1000 edge_8_7_0_0 <= 0
 inactive_no_flow_8_9_0_0: flow_8_9_0_0 - 1000 edge_8_9_0_0 <= 0
 inactive_no_flow_8_11_0_0: flow_8_11_0_0 - 1000 edge_8_11_0_0 <= 0
 inactive_no_flow_8_16_0_0: flow_8_16_0_0 - 1000 edge_8_16_0_0 <= 0
 inactive_no_flow_9_7_0_0: flow_9_7_0_0 - 1000 edge_9_7_0_0 <= 0
 inactive_no_flow_9_8_0_0: flow_9_8_0_0 - 1000 edge_9_8_0_0 <= 0
 inactive_no_flow_9_11_0_0: flow_9_11_0_0 - 1000 edge_9_11_0_0 <= 0
 inactive_no_flow_9_12_0_0: flow_9_12_0_0 - 1000 edge_9_12_0_0 <= 0
 inactive_no_flow_9_13_0_0: flow_9_13_0_0 - 1000 edge_9_13_0_0 <= 0
 inactive_no_flow_11_2_0_0: flow_11_2_0_0 - 1000 edge_11_2_0_0 <= 0
 inactive_no_flow_11_3_0_0: flow_11_3_0_0 - 1000 edge_11_3_0_0 <= 0
 inactive_no_flow_11_4_0_0: flow_11_4_0_0 - 1000 edge_11_4_0_0 <= 0
 inactive_no_flow_11_6_0_0: flow_11_6_0_0 - 1000 edge_11_6_0_0 <= 0
 inactive_no_flow_11_7_0_0: flow_11_7_0_0 - 1000 edge_11_7_0_0 <= 0
 inactive_no_flow_11_8_0_0: flow_11_8_0_0 - 1000 edge_11_8_0_0 <= 0
 inactive_no_flow_11_9_0_0: flow_11_9_0_0 - 1000 edge_11_9_0_0 <= 0
 inactive_no_flow_11_12_0_0: flow_11_12_0_0 - 1000 edge_11_12_0_0 <= 0
 inactive_no_flow_11_13_0_0: flow_11_13_0_0 - 1000 edge_11_13_0_0 <= 0
 inactive_no_flow_11_15_0_0: flow_11_15_0_0 - 1000 edge_11_15_0_0 <= 0
 inactive_no_flow_11_16_0_0: flow_11_16_0_0 - 1000 edge_11_16_0_0 <= 0
 inactive_no_flow_11_17_0_0: flow_11_17_0_0 - 1000 edge_11_17_0_0 <= 0
 inactive_no_flow_11_19_0_0: flow_11_19_0_0 - 1000 edge_11_19_0_0 <= 0
 inactive_no_flow_11_20_0_0: flow_11_20_0_0 - 1000 edge_11_20_0_0 <= 0
 inactive_no_flow_13_2_0_0: flow_13_2_0_0 - 1000 edge_13_2_0_0 <= 0
 inactive_no_flow_13_3_0_0: flow_13_3_0_0 - 1000 edge_13_3_0_0 <= 0
 inactive_no_flow_13_4_0_0: flow_13_4_0_0 - 1000 edge_13_4_0_0 <= 0
 inactive_no_flow_13_5_0_0: flow_13_5_0_0 - 1000 edge_13_5_0_0 <= 0
 inactive_no_flow_13_6_0_0: flow_13_6_0_0 - 1000 edge_13_6_0_0 <= 0
 inactive_no_flow_13_7_0_0: flow_13_7_0_0 - 1000 edge_13_7_0_0 <= 0
 inactive_no_flow_13_8_0_0: flow_13_8_0_0 - 1000 edge_13_8_0_0 <= 0
 inactive_no_flow_13_9_0_0: flow_13_9_0_0 - 1000 edge_13_9_0_0 <= 0
 inactive_no_flow_13_11_0_0: flow_13_11_0_0 - 1000 edge_13_11_0_0 <= 0
 inactive_no_flow_13_14_0_0: flow_13_14_0_0 - 1000 edge_13_14_0_0 <= 0
 inactive_no_flow_13_15_0_0: flow_13_15_0_0 - 1000 edge_13_15_0_0 <= 0
 inactive_no_flow_13_16_0_0: flow_13_16_0_0 - 1000 edge_13_16_0_0 <= 0
 inactive_no_flow_13_17_0_0: flow_13_17_0_0 - 1000 edge_13_17_0_0 <= 0
 inactive_no_flow_13_18_0_0: flow_13_18_0_0 - 1000 edge_13_18_0_0 <= 0
 inactive_no_flow_13_19_0_0: flow_13_19_0_0 - 1000 edge_13_19_0_0 <= 0
 inactive_no_flow_13_20_0_0: flow_13_20_0_0 - 1000 edge_13_20_0_0 <= 0
 inactive_no_flow_15_2_0_0: flow_15_2_0_0 - 1000 edge_15_2_0_0 <= 0
 inactive_no_flow_15_3_0_0: flow_15_3_0_0 - 1000 edge_15_3_0_0 <= 0
 inactive_no_flow_15_4_0_0: flow_15_4_0_0 - 1000 edge_15_4_0_0 <= 0
 inactive_no_flow_15_5_0_0: flow_15_5_0_0 - 1000 edge_15_5_0_0 <= 0
 inactive_no_flow_15_6_0_0: flow_15_6_0_0 - 1000 edge_15_6_0_0 <= 0
 inactive_no_flow_15_7_0_0: flow_15_7_0_0 - 1000 edge_15_7_0_0 <= 0
 inactive_no_flow_15_8_0_0: flow_15_8_0_0 - 1000 edge_15_8_0_0 <= 0
 inactive_no_flow_15_11_0_0: flow_15_11_0_0 - 1000 edge_15_11_0_0 <= 0
 inactive_no_flow_15_12_0_0: flow_15_12_0_0 - 1000 edge_15_12_0_0 <= 0
 inactive_no_flow_15_13_0_0: flow_15_13_0_0 - 1000 edge_15_13_0_0 <= 0
 inactive_no_flow_15_14_0_0: flow_15_14_0_0 - 1000 edge_15_14_0_0 <= 0
 inactive_no_flow_15_16_0_0: flow_15_16_0_0 - 1000 edge_15_16_0_0 <= 0
 inactive_no_flow_15_17_0_0: flow_15_17_0_0 - 1000 edge_15_17_0_0 <= 0
 inactive_no_flow_15_19_0_0: flow_15_19_0_0 - 1000 edge_15_19_0_0 <= 0
 inactive_no_flow_15_20_0_0: flow_15_20_0_0 - 1000 edge_15_20_0_0 <= 0
 inactive_no_flow_16_2_0_0: flow_16_2_0_0 - 1000 edge_16_2_0_0 <= 0
 inactive_no_flow_16_3_0_0: flow_16_3_0_0 - 1000 edge_16_3_0_0 <= 0
 inactive_no_flow_16_4_0_0: flow_16_4_0_0 - 1000 edge_16_4_0_0 <= 0
 inactive_no_flow_16_5_0_0: flow_16_5_0_0 - 1000 edge_16_5_0_0 <= 0
 inactive_no_flow_16_6_0_0: flow_16_6_0_0 - 1000 edge_16_6_0_0 <= 0
 inactive_no_flow_16_7_0_0: flow_16_7_0_0 - 1000 edge_16_7_0_0 <= 0
 inactive_no_flow_16_8_0_0: flow_16_8_0_0 - 1000 edge_16_8_0_0 <= 0
 inactive_no_flow_16_9_0_0: flow_16_9_0_0 - 1000 edge_16_9_0_0 <= 0
 inactive_no_flow_16_11_0_0: flow_16_11_0_0 - 1000 edge_16_11_0_0 <= 0
 inactive_no_flow_16_12_0_0: flow_16_12_0_0 - 1000 edge_16_12_0_0 <= 0
 inactive_no_flow_16_13_0_0: flow_16_13_0_0 - 1000 edge_16_13_0_0 <= 0
 inactive_no_flow_16_14_0_0: flow_16_14_0_0 - 1000 edge_16_14_0_0 <= 0
 inactive_no_flow_16_15_0_0: flow_16_15_0_0 - 1000 edge_16_15_0_0 <= 0
 inactive_no_flow_16_17_0_0: flow_16_17_0_0 - 1000 edge_16_17_0_0 <= 0
 inactive_no_flow_16_19_0_0: flow_16_19_0_0 - 1000 edge_16_19_0_0 <= 0
 inactive_no_flow_16_20_0_0: flow_16_20_0_0 - 1000 edge_16_20_0_0 <= 0
 inactive_no_flow_17_13_0_0: flow_17_13_0_0 - 1000 edge_17_13_0_0 <= 0
 inactive_no_flow_17_15_0_0: flow_17_15_0_0 - 1000 edge_17_15_0_0 <= 0
 inactive_no_flow_17_18_0_0: flow_17_18_0_0 - 1000 edge_17_18_0_0 <= 0
 inactive_no_flow_17_19_0_0: flow_17_19_0_0 - 1000 edge_17_19_0_0 <= 0
 inactive_no_flow_19_2_0_0: flow_19_2_0_0 - 1000 edge_19_2_0_0 <= 0
 inactive_no_flow_19_6_0_0: flow_19_6_0_0 - 1000 edge_19_6_0_0 <= 0
 inactive_no_flow_19_11_0_0: flow_19_11_0_0 - 1000 edge_19_11_0_0 <= 0
 inactive_no_flow_19_13_0_0: flow_19_13_0_0 - 1000 edge_19_13_0_0 <= 0
 inactive_no_flow_19_14_0_0: flow_19_14_0_0 - 1000 edge_19_14_0_0 <= 0
 inactive_no_flow_19_15_0_0: flow_19_15_0_0 - 1000 edge_19_15_0_0 <= 0
 inactive_no_flow_19_16_0_0: flow_19_16_0_0 - 1000 edge_19_16_0_0 <= 0
 inactive_no_flow_19_17_0_0: flow_19_17_0_0 - 1000 edge_19_17_0_0 <= 0
 inactive_no_flow_19_18_0_0: flow_19_18_0_0 - 1000 edge_19_18_0_0 <= 0
 inactive_no_flow_19_20_0_0: flow_19_20_0_0 - 1000 edge_19_20_0_0 <= 0
Bounds
Binaries
 edge_0_2_0_0 edge_0_3_0_0 edge_0_4_0_0 edge_0_5_0_0 edge_0_6_0_0
 edge_0_7_0_0 edge_0_11_0_0 edge_0_13_0_0 edge_0_15_0_0 edge_0_16_0_0
 edge_0_19_0_0 edge_2_3_0_0 edge_2_4_0_0 edge_2_5_0_0 edge_2_6_0_0
 edge_2_7_0_0 edge_2_8_0_0 edge_2_9_0_0 edge_2_11_0_0 edge_2_16_0_0
 edge_2_19_0_0 edge_2_20_0_0 edge_3_2_0_0 edge_3_4_0_0 edge_3_5_0_0
 edge_3_6_0_0 edge_3_7_0_0 edge_3_8_0_0 edge_3_9_0_0 edge_3_11_0_0
 edge_3_12_0_0 edge_3_13_0_0 edge_3_15_0_0 edge_3_16_0_0 edge_3_19_0_0
 edge_3_20_0_0 edge_4_3_0_0 edge_4_5_0_0 edge_4_6_0_0 edge_5_2_0_0
 edge_5_3_0_0 edge_5_4_0_0 edge_5_6_0_0 edge_5_7_0_0 edge_5_9_0_0
 edge_5_16_0_0 edge_6_2_0_0 edge_6_3_0_0 edge_6_4_0_0 edge_6_5_0_0
 edge_6_7_0_0 edge_6_8_0_0 edge_6_9_0_0 edge_6_11_0_0 edge_6_12_0_0
 edge_6_13_0_0 edge_6_15_0_0 edge_6_16_0_0 edge_6_17_0_0 edge_6_19_0_0
 edge_6_20_0_0 edge_7_2_0_0 edge_7_3_0_0 edge_7_4_0_0 edge_7_5_0_0
 edge_7_6_0_0 edge_7_8_0_0 edge_7_9_0_0 edge_7_11_0_0 edge_7_12_0_0
 edge_7_13_0_0 edge_7_15_0_0 edge_7_16_0_0 edge_7_19_0_0 edge_7_20_0_0
 edge_8_7_0_0 edge_8_9_0_0 edge_8_11_0_0 edge_8_16_0_0 edge_9_7_0_0
 edge_9_8_0_0 edge_9_11_0_0 edge_9_12_0_0 edge_9_13_0_0 edge_11_2_0_0
 edge_11_3_0_0 edge_11_4_0_0 edge_11_6_0_0 edge_11_7_0_0 edge_11_8_0_0
 edge_11_9_0_0 edge_11_12_0_0 edge_11_13_0_0 edge_11_15_0_0 edge_11_16_0_0
 edge_11_17_0_0 edge_11_19_0_0 edge_11_20_0_0 edge_13_2_0_0 edge_13_3_0_0
 edge_13_4_0_0 edge_13_5_0_0 edge_13_6_0_0 edge_13_7_0_0 edge_13_8_0_0
 edge_13_9_0_0 edge_13_11_0_0 edge_13_14_0_0 edge_13_15_0_0 edge_13_16_0_0
 edge_13_17_0_0 edge_13_18_0_0 edge_13_19_0_0 edge_13_20_0_0 edge_15_2_0_0
 edge_15_3_0_0 edge_15_4_0_0 edge_15_5_0_0 edge_15_6_0_0 edge_15_7_0_0
 edge_15_8_0_0 edge_15_11_0_0 edge_15_12_0_0 edge_15_13_0_0 edge_15_14_0_0
 edge_15_16_0_0 edge_15_17_0_0 edge_15_19_0_0 edge_15_20_0_0 edge_16_2_0_0
 edge_16_3_0_0 edge_16_4_0_0 edge_16_5_0_0 edge_16_6_0_0 edge_16_7_0_0
 edge_16_8_0_0 edge_16_9_0_0 edge_16_11_0_0 edge_16_12_0_0 edge_16_13_0_0
 edge_16_14_0_0 edge_16_15_0_0 edge_16_17_0_0 edge_16_19_0_0 edge_16_20_0_0
 edge_17_13_0_0 edge_17_15_0_0 edge_17_18_0_0 edge_17_19_0_0 edge_19_2_0_0
 edge_19_6_0_0 edge_19_11_0_0 edge_19_13_0_0 edge_19_14_0_0 edge_19_15_0_0
 edge_19_16_0_0 edge_19_17_0_0 edge_19_18_0_0 edge_19_20_0_0
End
